************************************************************************
file with basedata            : md372_.bas
initial value random generator: 1698176347
************************************************************************
projects                      :  1
jobs (incl. supersource/sink ):  22
horizon                       :  162
RESOURCES
  - renewable                 :  2   R
  - nonrenewable              :  2   N
  - doubly constrained        :  0   D
************************************************************************
PROJECT INFORMATION:
pronr.  #jobs rel.date duedate tardcost  MPM-Time
    1     20      0       25       16       25
************************************************************************
PRECEDENCE RELATIONS:
jobnr.    #modes  #successors   successors
   1        1          3           2   3   4
   2        3          2           8  10
   3        3          2          11  14
   4        3          3           5  11  21
   5        3          3           6   7  12
   6        3          1           9
   7        3          2           9  10
   8        3          3          12  13  14
   9        3          3          13  15  17
  10        3          3          14  15  17
  11        3          2          13  18
  12        3          2          17  19
  13        3          1          16
  14        3          1          20
  15        3          2          18  19
  16        3          2          19  20
  17        3          1          18
  18        3          1          20
  19        3          1          22
  20        3          1          22
  21        3          1          22
  22        1          0        
************************************************************************
REQUESTS/DURATIONS:
jobnr. mode duration  R 1  R 2  N 1  N 2
------------------------------------------------------------------------
  1      1     0       0    0    0    0
  2      1     6       0    9    9    4
         2    10       5    0    7    3
         3    10       2    0    9    2
  3      1     3       0    9   10    2
         2     4       9    0    7    2
         3    10       0    6    7    2
  4      1     4       5    0    9   10
         2     4      10    0    9    6
         3     8       0    4    6    3
  5      1     1       8    0    9    8
         2     8       0    8    6    8
         3     9       0    4    6    5
  6      1     1       0    7    8    4
         2     7       0    6    5    2
         3     8       0    6    4    1
  7      1     2       0    8    5    9
         2     3       0    4    5    9
         3     7       0    1    5    8
  8      1     1       0    4    7    8
         2     6       8    0    6    7
         3     8       0    3    5    5
  9      1     1       7    0    4    7
         2     2       0    4    3    6
         3     9       5    0    3    5
 10      1     3       0    6    5    3
         2     4       4    0    5    3
         3     8       4    0    3    2
 11      1     2       2    0    7    7
         2     3       0    3    7    4
         3     9       1    0    6    3
 12      1     2       0    4   10    6
         2     7      10    0    8    5
         3     8       7    0    6    5
 13      1     2       0    5    8    7
         2     6       0    4    7    4
         3     9       3    0    7    2
 14      1     3       0    7    8    4
         2     4       3    0    4    4
         3     6       0    5    3    4
 15      1     4       0    8    6    7
         2     6       1    0    5    6
         3     7       0    5    5    4
 16      1     5       0    8    5    6
         2     6       3    0    4    3
         3     6       0    5    4    3
 17      1     2       4    0    8    6
         2     9       2    0    6    5
         3    10       0    5    5    1
 18      1     5       2    0    7    2
         2     5       0    8    8    2
         3     7       0    6    4    1
 19      1     4       0    9    9    7
         2     6       2    0    8    6
         3     6       0    8    8    6
 20      1     6       0    7    4    7
         2     7       0    6    4    4
         3    10       0    4    3    4
 21      1     5       9    0    6    5
         2     5       0    2    6    4
         3     7      10    0    4    2
 22      1     0       0    0    0    0
************************************************************************
RESOURCEAVAILABILITIES:
  R 1  R 2  N 1  N 2
   25   28  134  106
************************************************************************
MAXIMAL LAGS:
from  to  type  delay
    1   12   ES      0
    1    2   ES      0
    2   12   ES      0
    1    3   ES      0
    3   12   ES      0
    1    4   ES      0
    4   12   ES      0
    1    5   ES      0
    5   12   ES      0
    1    6   ES      0
    6   12   ES      0
    1    7   ES      0
    7   12   ES      0
    1    8   ES      0
    8   12   ES      0
    1    9   ES      0
    9   12   ES      0
    1   10   ES      0
   10   12   ES      0
    1   11   ES      0
   11   12   ES      0
    1   12   ES      0
    2    8   SS    -10
    2    8   SE      7
    2    8   ES     10
    2    8   EE    -12
    2   10   SS    -12
    2   10   SE     12
    2   10   ES     -2
    2   10   EE      1
    3   11   SS     12
    3   11   SE      2
    3   11   ES     -5
    3   11   EE      8
    3   14   SS     -1
    3   14   SE     -7
    3   14   ES      1
    3   14   EE     -5
    4    5   SS     -1
    4    5   SE      7
    4    5   ES     -1
    4    5   EE    -10
    4   11   SS      3
    4   11   SE      1
    4   11   ES     -5
    4   11   EE     -1
    4   21   SS     -7
    4   21   SE     -4
    4   21   ES     -9
    4   21   EE     -5
    5    6   SS      8
    5    6   SE    -12
    5    6   ES     -8
    5    6   EE     10
    5    7   SS     -7
    5    7   SE      4
    5    7   ES     12
    5    7   EE      0
    6    9   SS      3
    6    9   SE     -9
    6    9   ES    -11
    6    9   EE      0
    7    9   SS      1
    7    9   SE     -2
    7    9   ES     11
    7    9   EE      1
    7   10   SS    -12
    7   10   SE     -7
    7   10   ES     -3
    7   10   EE      6
    8   13   SS     -7
    8   13   SE     -6
    8   13   ES     -1
    8   13   EE      2
    8   14   SS      2
    8   14   SE      2
    8   14   ES     -3
    8   14   EE    -10
    9   13   SS      9
    9   13   SE     -3
    9   13   ES      6
    9   13   EE    -11
    9   15   SS     -1
    9   15   SE      3
    9   15   ES    -10
    9   15   EE      3
    9   17   SS     -2
    9   17   SE     -6
    9   17   ES     -8
    9   17   EE     -8
   10   14   SS     10
   10   14   SE      3
   10   14   ES      9
   10   14   EE      7
   10   15   SS      7
   10   15   SE      3
   10   15   ES     10
   10   15   EE      9
   10   17   SS     12
   10   17   SE     -1
   10   17   ES     -7
   10   17   EE      0
   11   13   SS     -9
   11   13   SE     -2
   11   13   ES      4
   11   13   EE      2
   11   18   SS      4
   11   18   SE      7
   11   18   ES     10
   11   18   EE      4
   12   17   SS      7
   12   17   SE     10
   12   17   ES     -9
   12   17   EE      0
   12   19   SS     11
   12   19   SE      5
   12   19   ES     -5
   12   19   EE     -9
   13   16   SS      3
   13   16   SE     -9
   13   16   ES     -2
   13   16   EE     -9
   14   20   SS    -10
   14   20   SE    -10
   14   20   ES     -4
   14   20   EE     -7
   15   18   SS     11
   15   18   SE     -4
   15   18   ES     -9
   15   18   EE     -7
   15   19   SS     -3
   15   19   SE     10
   15   19   ES      4
   15   19   EE     -3
   16   19   SS     -1
   16   19   SE     -3
   16   19   ES      1
   16   19   EE      2
   16   20   SS     -6
   16   20   SE    -10
   16   20   ES      9
   16   20   EE     -6
   17   18   SS      2
   17   18   SE    -10
   17   18   ES     11
   17   18   EE      3
   18   20   SS     10
   18   20   SE     -4
   18   20   ES    -10
   18   20   EE      6
   19   22   SS    -12
   19   22   SE      9
   19   22   ES      1
   19   22   EE      0
   20   22   SS      7
   20   22   SE     -2
   20   22   ES     -3
   20   22   EE     -2
   21   22   SS      8
   21   22   SE    -11
   21   22   ES      5
   21   22   EE     -1
************************************************************************
